peakDumbCharging = 7400; 
Machine = anon_enum(16); 
machineSpeed = [3700,3700,3700,3700,3700,3700,3700,3700,3700,3700,3700,3700,3700,3700,3700,3700]; 
machineLoad = [3700,3700,3700,3700,3700,3700,3700,3700,3700,3700,3700,3700,3700,3700,3700,3700]; 
Car = anon_enum(3); 
demandCar = [14640,16400,6040]; 
arrivalCar = [67,50,49]; 
departureCar = [73,58,52]; 
